3 
4  21 35 49 
5  07 22 46 
6  01 16 31 46 
7  01 16 31 46 
8  01 16 31 46 
9  01 16 31 46 
10  01 16 31 46 
11  01 16 31 46 
12  01 16 31 46 
13  01 16 31 46 
14  01 16 31 46 
15  01 16 31 46 
16  01 16 31 46 
17  01 16 31 46 
18  02 17 31 46 
19  01 16 31 46 
20  01 16 31 46 
21  01 16 31 46 
22  01 19 34 54 
23 
